AES/1_2_8/ssaes_r1-20_c2_rw1_e8_f0_k1-20_aes_min_box_aes_mc_bidirectional/ExperimentMinisat_r6_k10cnf_2011-11-10-161227/Result
WARNING: for repeatability, setting FPU to use double precision
============================[ Problem Statistics ]=============================
|                                                                             |
|  Number of variables:           528                                         |
|  Number of clauses:            6508                                         |
|  Parse time:                   0.01 s                                       |
|  Eliminated clauses:           0.01 Mb                                      |
|  Simplification time:          0.02 s                                       |
|                                                                             |
=============================[ Search Statistics ]==============================
| Conflicts  |          ORIGINAL         |          LEARNT          | Progress |
|            |    Vars  Clauses Literals |    Limit  Clauses Lit/Cl |          |
================================================================================
|        100 |     336     6028    37078 |     2210      100     15 | 15.152 % |
|        250 |     336     6028    37078 |     2431      250     14 | 15.152 % |
|        475 |     336     6028    37078 |     2674      475     14 | 15.152 % |
|        812 |     336     6028    37078 |     2941      812     14 | 15.152 % |
|       1318 |     336     6028    37078 |     3236     1318     14 | 15.152 % |
|       2077 |     336     6028    37078 |     3559     2077     14 | 15.152 % |
|       3216 |     336     6028    37078 |     3915     3216     14 | 15.152 % |
|       4924 |     336     6028    37078 |     4307     2917     14 | 15.152 % |
|       7486 |     336     6028    37078 |     4737     3274     14 | 15.152 % |
|      11330 |     336     6028    37078 |     5211     4684     14 | 15.152 % |
|      17096 |     336     6028    37078 |     5732     5094     14 | 15.152 % |
|      25745 |     336     6028    37078 |     6306     4923     14 | 15.152 % |
|      38719 |     336     6028    37078 |     6936     4996     15 | 15.152 % |
|      58180 |     336     6028    37078 |     7630     6784     14 | 15.152 % |
|      87372 |     336     6028    37078 |     8393     4916     15 | 15.152 % |
|     131161 |     336     6028    37078 |     9232     5913     15 | 15.152 % |
|     196845 |     336     6028    37078 |    10156     6048     14 | 15.152 % |
|     295371 |     336     6028    37078 |    11171     6754     16 | 15.152 % |
|     443160 |     336     6028    37078 |    12288     7408     14 | 15.152 % |
===============================================================================
restarts              : 1405
conflicts             : 654147         (66407 /sec)
decisions             : 889263         (0.00 % random) (90276 /sec)
propagations          : 11813908       (1199320 /sec)
conflict literals     : 10227768       (6.21 % deleted)
Memory used           : 10.00 MB
CPU time              : 9.8505 s

SATISFIABLE
